\Generated by Cardinal Operations

Maximize
   20 x_1 + 40 x_2 + 50 x_3 + 20 x_4 + 60 x_5 + 25 x_6 + 20 x_7 
Subject To
 inventory_constraint: x_1 <= 10440
 x_2 <= 13610
 x_3 <= 11500
 x_4 <= 12260
 x_5 <= 10970
 x_6 <= 12780
 x_7 <= 10060
 demand_constraint: x_1 <= 1483
 x_2 <= 1918
 x_3 <= 1623
 x_4 <= 1720
 x_5 <= 1558
 x_6 <= 1791
 x_7 <= 1426
Generals
 x_1  x_2  x_3  x_4  x_5  x_6  x_7  
END

